p wcnf 424 1016
w -2 0.367879 0
w 2 2.718282 0
w -3 0.367879 0
w 3 2.718282 0
w -4 0.367879 0
w 4 2.718282 0
w -5 0.367879 0
w 5 2.718282 0
w -7 0.367879 0
w 7 2.718282 0
w -8 0.367879 0
w 8 2.718282 0
w -9 0.367879 0
w 9 2.718282 0
w -11 0.367879 0
w 11 2.718282 0
w -12 0.367879 0
w 12 2.718282 0
w -14 0.367879 0
w 14 2.718282 0
w -15 0.367879 0
w 15 2.718282 0
w -16 0.367879 0
w 16 2.718282 0
w -17 0.367879 0
w 17 2.718282 0
w -18 0.367879 0
w 18 2.718282 0
w -20 0.367879 0
w 20 2.718282 0
w -21 0.367879 0
w 21 2.718282 0
w -22 0.367879 0
w 22 2.718282 0
w -23 0.367879 0
w 23 2.718282 0
w -24 0.367879 0
w 24 2.718282 0
w -25 0.367879 0
w 25 2.718282 0
w -27 0.367879 0
w 27 2.718282 0
w -28 0.367879 0
w 28 2.718282 0
w -30 0.367879 0
w 30 2.718282 0
w -33 0.367879 0
w 33 2.718282 0
w -34 0.367879 0
w 34 2.718282 0
w -35 0.367879 0
w 35 2.718282 0
w -36 0.367879 0
w 36 2.718282 0
w -37 0.367879 0
w 37 2.718282 0
w -39 0.367879 0
w 39 2.718282 0
w -40 0.367879 0
w 40 2.718282 0
w -42 0.367879 0
w 42 2.718282 0
w -43 0.367879 0
w 43 2.718282 0
w -44 0.367879 0
w 44 2.718282 0
w -45 0.367879 0
w 45 2.718282 0
w -47 0.367879 0
w 47 2.718282 0
w -48 0.367879 0
w 48 2.718282 0
w -49 0.367879 0
w 49 2.718282 0
w -51 0.367879 0
w 51 2.718282 0
w -52 0.367879 0
w 52 2.718282 0
w -53 0.367879 0
w 53 2.718282 0
w -54 0.367879 0
w 54 2.718282 0
w -56 0.367879 0
w 56 2.718282 0
w -57 0.367879 0
w 57 2.718282 0
w -58 0.367879 0
w 58 2.718282 0
w -60 0.367879 0
w 60 2.718282 0
w -62 0.367879 0
w 62 2.718282 0
w -64 0.367879 0
w 64 2.718282 0
w -65 0.367879 0
w 65 2.718282 0
w -66 0.367879 0
w 66 2.718282 0
w -67 0.367879 0
w 67 2.718282 0
w -68 0.367879 0
w 68 2.718282 0
w -69 0.367879 0
w 69 2.718282 0
w -71 0.367879 0
w 71 2.718282 0
w -72 0.367879 0
w 72 2.718282 0
w -73 0.367879 0
w 73 2.718282 0
w -74 0.367879 0
w 74 2.718282 0
w -76 0.367879 0
w 76 2.718282 0
w -77 0.367879 0
w 77 2.718282 0
w -80 0.367879 0
w 80 2.718282 0
w -81 0.367879 0
w 81 2.718282 0
w -82 0.367879 0
w 82 2.718282 0
w -84 0.367879 0
w 84 2.718282 0
w -85 0.367879 0
w 85 2.718282 0
w -86 0.367879 0
w 86 2.718282 0
w -88 0.367879 0
w 88 2.718282 0
w -89 0.367879 0
w 89 2.718282 0
w -91 0.367879 0
w 91 2.718282 0
w -92 0.367879 0
w 92 2.718282 0
w -94 0.367879 0
w 94 2.718282 0
w -95 0.367879 0
w 95 2.718282 0
w -96 0.367879 0
w 96 2.718282 0
w -98 0.367879 0
w 98 2.718282 0
w -99 0.367879 0
w 99 2.718282 0
w -100 0.367879 0
w 100 2.718282 0
w -102 0.367879 0
w 102 2.718282 0
w -103 0.367879 0
w 103 2.718282 0
w -104 0.367879 0
w 104 2.718282 0
w -105 0.367879 0
w 105 2.718282 0
w -106 0.367879 0
w 106 2.718282 0
w -107 0.367879 0
w 107 2.718282 0
w -109 0.367879 0
w 109 2.718282 0
w -111 0.367879 0
w 111 2.718282 0
w -113 0.367879 0
w 113 2.718282 0
w -115 0.367879 0
w 115 2.718282 0
w -116 0.367879 0
w 116 2.718282 0
w -118 0.367879 0
w 118 2.718282 0
w -119 0.367879 0
w 119 2.718282 0
w -121 0.367879 0
w 121 2.718282 0
w -122 0.367879 0
w 122 2.718282 0
w -123 0.367879 0
w 123 2.718282 0
w -125 0.367879 0
w 125 2.718282 0
w -126 0.367879 0
w 126 2.718282 0
w -127 0.367879 0
w 127 2.718282 0
w -129 0.367879 0
w 129 2.718282 0
w -130 0.367879 0
w 130 2.718282 0
w -132 0.367879 0
w 132 2.718282 0
w -134 0.367879 0
w 134 2.718282 0
w -136 0.367879 0
w 136 2.718282 0
w -137 0.367879 0
w 137 2.718282 0
w -138 0.367879 0
w 138 2.718282 0
w -139 0.367879 0
w 139 2.718282 0
w -141 0.367879 0
w 141 2.718282 0
w -142 0.367879 0
w 142 2.718282 0
w -144 0.367879 0
w 144 2.718282 0
w -145 0.367879 0
w 145 2.718282 0
w -147 0.367879 0
w 147 2.718282 0
w -148 0.367879 0
w 148 2.718282 0
w -150 0.367879 0
w 150 2.718282 0
w -151 0.367879 0
w 151 2.718282 0
w -152 0.367879 0
w 152 2.718282 0
w -154 0.367879 0
w 154 2.718282 0
w -155 0.367879 0
w 155 2.718282 0
w -156 0.367879 0
w 156 2.718282 0
w -157 0.367879 0
w 157 2.718282 0
w -159 0.367879 0
w 159 2.718282 0
w -160 0.367879 0
w 160 2.718282 0
w -161 0.367879 0
w 161 2.718282 0
w -162 0.367879 0
w 162 2.718282 0
w -164 0.367879 0
w 164 2.718282 0
w -165 0.367879 0
w 165 2.718282 0
w -166 0.367879 0
w 166 2.718282 0
w -168 0.367879 0
w 168 2.718282 0
w -169 0.367879 0
w 169 2.718282 0
w -171 0.367879 0
w 171 2.718282 0
w -172 0.367879 0
w 172 2.718282 0
w -173 0.367879 0
w 173 2.718282 0
w -175 0.367879 0
w 175 2.718282 0
w -177 0.367879 0
w 177 2.718282 0
w -178 0.367879 0
w 178 2.718282 0
w -180 0.367879 0
w 180 2.718282 0
w -181 0.367879 0
w 181 2.718282 0
w -182 0.367879 0
w 182 2.718282 0
w -183 0.367879 0
w 183 2.718282 0
w -186 0.367879 0
w 186 2.718282 0
w -187 0.367879 0
w 187 2.718282 0
w -189 0.367879 0
w 189 2.718282 0
w -190 0.367879 0
w 190 2.718282 0
w -191 0.367879 0
w 191 2.718282 0
w -192 0.367879 0
w 192 2.718282 0
w -194 0.367879 0
w 194 2.718282 0
w -195 0.367879 0
w 195 2.718282 0
w -196 0.367879 0
w 196 2.718282 0
w -198 0.367879 0
w 198 2.718282 0
w -200 0.367879 0
w 200 2.718282 0
w -201 0.367879 0
w 201 2.718282 0
w -202 0.367879 0
w 202 2.718282 0
w -204 0.367879 0
w 204 2.718282 0
w -205 0.367879 0
w 205 2.718282 0
w -206 0.367879 0
w 206 2.718282 0
w -209 0.367879 0
w 209 2.718282 0
w -211 0.367879 0
w 211 2.718282 0
w -212 0.367879 0
w 212 2.718282 0
w -215 0.367879 0
w 215 2.718282 0
w -217 0.367879 0
w 217 2.718282 0
w -218 0.367879 0
w 218 2.718282 0
w -220 0.367879 0
w 220 2.718282 0
w -221 0.367879 0
w 221 2.718282 0
w -222 0.367879 0
w 222 2.718282 0
w -223 0.367879 0
w 223 2.718282 0
w -225 0.367879 0
w 225 2.718282 0
w -226 0.367879 0
w 226 2.718282 0
w -228 0.367879 0
w 228 2.718282 0
w -229 0.367879 0
w 229 2.718282 0
w -230 0.367879 0
w 230 2.718282 0
w -232 0.367879 0
w 232 2.718282 0
w -233 0.367879 0
w 233 2.718282 0
w -237 0.367879 0
w 237 2.718282 0
w -239 0.367879 0
w 239 2.718282 0
w -240 0.367879 0
w 240 2.718282 0
w -242 0.367879 0
w 242 2.718282 0
w -244 0.367879 0
w 244 2.718282 0
w -245 0.367879 0
w 245 2.718282 0
w -246 0.367879 0
w 246 2.718282 0
w -249 0.367879 0
w 249 2.718282 0
w -250 0.367879 0
w 250 2.718282 0
w -251 0.367879 0
w 251 2.718282 0
w -253 0.367879 0
w 253 2.718282 0
w -255 0.367879 0
w 255 2.718282 0
w -257 0.367879 0
w 257 2.718282 0
w -260 0.367879 0
w 260 2.718282 0
w -261 0.367879 0
w 261 2.718282 0
w -263 0.367879 0
w 263 2.718282 0
w -264 0.367879 0
w 264 2.718282 0
w -265 0.367879 0
w 265 2.718282 0
w -267 0.367879 0
w 267 2.718282 0
w -269 0.367879 0
w 269 2.718282 0
w -270 0.367879 0
w 270 2.718282 0
w -272 0.367879 0
w 272 2.718282 0
w -274 0.367879 0
w 274 2.718282 0
w -275 0.367879 0
w 275 2.718282 0
w -277 0.367879 0
w 277 2.718282 0
w -280 0.367879 0
w 280 2.718282 0
w -281 0.367879 0
w 281 2.718282 0
w -282 0.367879 0
w 282 2.718282 0
w -284 0.367879 0
w 284 2.718282 0
w -285 0.367879 0
w 285 2.718282 0
w -286 0.367879 0
w 286 2.718282 0
w -287 0.367879 0
w 287 2.718282 0
w -291 0.367879 0
w 291 2.718282 0
w -293 0.367879 0
w 293 2.718282 0
w -295 0.367879 0
w 295 2.718282 0
w -296 0.367879 0
w 296 2.718282 0
w -298 0.367879 0
w 298 2.718282 0
w -299 0.367879 0
w 299 2.718282 0
w -300 0.367879 0
w 300 2.718282 0
w -302 0.367879 0
w 302 2.718282 0
w -307 0.367879 0
w 307 2.718282 0
w -308 0.367879 0
w 308 2.718282 0
w -309 0.367879 0
w 309 2.718282 0
w -310 0.367879 0
w 310 2.718282 0
w -314 0.367879 0
w 314 2.718282 0
w -317 0.367879 0
w 317 2.718282 0
w -319 0.367879 0
w 319 2.718282 0
w -320 0.367879 0
w 320 2.718282 0
w -322 0.367879 0
w 322 2.718282 0
w -323 0.367879 0
w 323 2.718282 0
w -324 0.367879 0
w 324 2.718282 0
w -326 0.367879 0
w 326 2.718282 0
w -327 0.367879 0
w 327 2.718282 0
w -329 0.367879 0
w 329 2.718282 0
w -330 0.367879 0
w 330 2.718282 0
w -332 0.367879 0
w 332 2.718282 0
w -334 0.367879 0
w 334 2.718282 0
w -336 0.367879 0
w 336 2.718282 0
w -338 0.367879 0
w 338 2.718282 0
w -340 0.367879 0
w 340 2.718282 0
w -342 0.367879 0
w 342 2.718282 0
w -343 0.367879 0
w 343 2.718282 0
w -345 0.367879 0
w 345 2.718282 0
w -347 0.367879 0
w 347 2.718282 0
w -351 0.367879 0
w 351 2.718282 0
w -352 0.367879 0
w 352 2.718282 0
w -353 0.367879 0
w 353 2.718282 0
w -354 0.367879 0
w 354 2.718282 0
w -357 0.367879 0
w 357 2.718282 0
w -359 0.367879 0
w 359 2.718282 0
w -362 0.367879 0
w 362 2.718282 0
w -363 0.367879 0
w 363 2.718282 0
w -366 0.367879 0
w 366 2.718282 0
w -368 0.367879 0
w 368 2.718282 0
w -370 0.367879 0
w 370 2.718282 0
w -371 0.367879 0
w 371 2.718282 0
w -374 0.367879 0
w 374 2.718282 0
w -376 0.367879 0
w 376 2.718282 0
w -378 0.367879 0
w 378 2.718282 0
w -380 0.367879 0
w 380 2.718282 0
w -382 0.367879 0
w 382 2.718282 0
w -386 0.367879 0
w 386 2.718282 0
w -388 0.367879 0
w 388 2.718282 0
w -398 0.367879 0
w 398 2.718282 0
w -401 0.367879 0
w 401 2.718282 0
w -404 0.367879 0
w 404 2.718282 0
w -406 0.367879 0
w 406 2.718282 0
w -412 0.367879 0
w 412 2.718282 0
2 1 78 0
2 -1 -78 0
-2 1 -78 0
-2 -1 78 0
3 1 120 0
3 -1 -120 0
-3 1 -120 0
-3 -1 120 0
4 1 344 0
4 -1 -344 0
-4 1 -344 0
-4 -1 344 0
5 1 387 0
5 -1 -387 0
-5 1 -387 0
-5 -1 387 0
7 6 158 0
7 -6 -158 0
-7 6 -158 0
-7 -6 158 0
8 6 167 0
8 -6 -167 0
-8 6 -167 0
-8 -6 167 0
9 6 420 0
9 -6 -420 0
-9 6 -420 0
-9 -6 420 0
11 10 41 0
11 -10 -41 0
-11 10 -41 0
-11 -10 41 0
12 10 170 0
12 -10 -170 0
-12 10 -170 0
-12 -10 170 0
14 13 163 0
14 -13 -163 0
-14 13 -163 0
-14 -13 163 0
15 13 254 0
15 -13 -254 0
-15 13 -254 0
-15 -13 254 0
16 13 268 0
16 -13 -268 0
-16 13 -268 0
-16 -13 268 0
17 13 273 0
17 -13 -273 0
-17 13 -273 0
-17 -13 273 0
18 13 318 0
18 -13 -318 0
-18 13 -318 0
-18 -13 318 0
20 19 79 0
20 -19 -79 0
-20 19 -79 0
-20 -19 79 0
21 19 210 0
21 -19 -210 0
-21 19 -210 0
-21 -19 210 0
22 19 224 0
22 -19 -224 0
-22 19 -224 0
-22 -19 224 0
23 19 303 0
23 -19 -303 0
-23 19 -303 0
-23 -19 303 0
24 19 325 0
24 -19 -325 0
-24 19 -325 0
-24 -19 325 0
25 19 385 0
25 -19 -385 0
-25 19 -385 0
-25 -19 385 0
27 26 176 0
27 -26 -176 0
-27 26 -176 0
-27 -26 176 0
28 26 208 0
28 -26 -208 0
-28 26 -208 0
-28 -26 208 0
30 29 214 0
30 -29 -214 0
-30 29 -214 0
-30 -29 214 0
33 32 101 0
33 -32 -101 0
-33 32 -101 0
-33 -32 101 0
34 32 170 0
34 -32 -170 0
-34 32 -170 0
-34 -32 170 0
35 32 321 0
35 -32 -321 0
-35 32 -321 0
-35 -32 321 0
36 32 383 0
36 -32 -383 0
-36 32 -383 0
-36 -32 383 0
37 32 384 0
37 -32 -384 0
-37 32 -384 0
-37 -32 384 0
39 38 258 0
39 -38 -258 0
-39 38 -258 0
-39 -38 258 0
40 38 413 0
40 -38 -413 0
-40 38 -413 0
-40 -38 413 0
42 41 143 0
42 -41 -143 0
-42 41 -143 0
-42 -41 143 0
43 41 219 0
43 -41 -219 0
-43 41 -219 0
-43 -41 219 0
44 41 266 0
44 -41 -266 0
-44 41 -266 0
-44 -41 266 0
45 41 271 0
45 -41 -271 0
-45 41 -271 0
-45 -41 271 0
47 46 149 0
47 -46 -149 0
-47 46 -149 0
-47 -46 149 0
48 46 288 0
48 -46 -288 0
-48 46 -288 0
-48 -46 288 0
49 46 361 0
49 -46 -361 0
-49 46 -361 0
-49 -46 361 0
51 50 90 0
51 -50 -90 0
-51 50 -90 0
-51 -50 90 0
52 50 174 0
52 -50 -174 0
-52 50 -174 0
-52 -50 174 0
53 50 197 0
53 -50 -197 0
-53 50 -197 0
-53 -50 197 0
54 50 289 0
54 -50 -289 0
-54 50 -289 0
-54 -50 289 0
56 55 133 0
56 -55 -133 0
-56 55 -133 0
-56 -55 133 0
57 55 384 0
57 -55 -384 0
-57 55 -384 0
-57 -55 384 0
58 55 387 0
58 -55 -387 0
-58 55 -387 0
-58 -55 387 0
60 59 120 0
60 -59 -120 0
-60 59 -120 0
-60 -59 120 0
62 61 413 0
62 -61 -413 0
-62 61 -413 0
-62 -61 413 0
64 63 174 0
64 -63 -174 0
-64 63 -174 0
-64 -63 174 0
65 63 224 0
65 -63 -224 0
-65 63 -224 0
-65 -63 224 0
66 63 361 0
66 -63 -361 0
-66 63 -361 0
-66 -63 361 0
67 63 383 0
67 -63 -383 0
-67 63 -383 0
-67 -63 383 0
68 63 387 0
68 -63 -387 0
-68 63 -387 0
-68 -63 387 0
69 63 389 0
69 -63 -389 0
-69 63 -389 0
-69 -63 389 0
71 70 153 0
71 -70 -153 0
-71 70 -153 0
-71 -70 153 0
72 70 238 0
72 -70 -238 0
-72 70 -238 0
-72 -70 238 0
73 70 361 0
73 -70 -361 0
-73 70 -361 0
-73 -70 361 0
74 70 395 0
74 -70 -395 0
-74 70 -395 0
-74 -70 395 0
76 75 262 0
76 -75 -262 0
-76 75 -262 0
-76 -75 262 0
77 75 339 0
77 -75 -339 0
-77 75 -339 0
-77 -75 339 0
80 79 271 0
80 -79 -271 0
-80 79 -271 0
-80 -79 271 0
81 79 318 0
81 -79 -318 0
-81 79 -318 0
-81 -79 318 0
82 79 364 0
82 -79 -364 0
-82 79 -364 0
-82 -79 364 0
84 83 135 0
84 -83 -135 0
-84 83 -135 0
-84 -83 135 0
85 83 318 0
85 -83 -318 0
-85 83 -318 0
-85 -83 318 0
86 83 337 0
86 -83 -337 0
-86 83 -337 0
-86 -83 337 0
88 87 199 0
88 -87 -199 0
-88 87 -199 0
-88 -87 199 0
89 87 278 0
89 -87 -278 0
-89 87 -278 0
-89 -87 278 0
91 90 241 0
91 -90 -241 0
-91 90 -241 0
-91 -90 241 0
92 90 407 0
92 -90 -407 0
-92 90 -407 0
-92 -90 407 0
94 93 124 0
94 -93 -124 0
-94 93 -124 0
-94 -93 124 0
95 93 143 0
95 -93 -143 0
-95 93 -143 0
-95 -93 143 0
96 93 305 0
96 -93 -305 0
-96 93 -305 0
-96 -93 305 0
98 97 248 0
98 -97 -248 0
-98 97 -248 0
-98 -97 248 0
99 97 331 0
99 -97 -331 0
-99 97 -331 0
-99 -97 331 0
100 97 392 0
100 -97 -392 0
-100 97 -392 0
-100 -97 392 0
102 101 133 0
102 -101 -133 0
-102 101 -133 0
-102 -101 133 0
103 101 316 0
103 -101 -316 0
-103 101 -316 0
-103 -101 316 0
104 101 321 0
104 -101 -321 0
-104 101 -321 0
-104 -101 321 0
105 101 325 0
105 -101 -325 0
-105 101 -325 0
-105 -101 325 0
106 101 377 0
106 -101 -377 0
-106 101 -377 0
-106 -101 377 0
107 101 421 0
107 -101 -421 0
-107 101 -421 0
-107 -101 421 0
109 108 416 0
109 -108 -416 0
-109 108 -416 0
-109 -108 416 0
111 110 203 0
111 -110 -203 0
-111 110 -203 0
-111 -110 203 0
113 112 402 0
113 -112 -402 0
-113 112 -402 0
-113 -112 402 0
115 114 315 0
115 -114 -315 0
-115 114 -315 0
-115 -114 315 0
116 114 408 0
116 -114 -408 0
-116 114 -408 0
-116 -114 408 0
118 117 238 0
118 -117 -238 0
-118 117 -238 0
-118 -117 238 0
119 117 288 0
119 -117 -288 0
-119 117 -288 0
-119 -117 288 0
121 120 131 0
121 -120 -131 0
-121 120 -131 0
-121 -120 131 0
122 120 279 0
122 -120 -279 0
-122 120 -279 0
-122 -120 279 0
123 120 418 0
123 -120 -418 0
-123 120 -418 0
-123 -120 418 0
125 124 214 0
125 -124 -214 0
-125 124 -214 0
-125 -124 214 0
126 124 234 0
126 -124 -234 0
-126 124 -234 0
-126 -124 234 0
127 124 379 0
127 -124 -379 0
-127 124 -379 0
-127 -124 379 0
129 128 219 0
129 -128 -219 0
-129 128 -219 0
-129 -128 219 0
130 128 341 0
130 -128 -341 0
-130 128 -341 0
-130 -128 341 0
132 131 335 0
132 -131 -335 0
-132 131 -335 0
-132 -131 335 0
134 133 158 0
134 -133 -158 0
-134 133 -158 0
-134 -133 158 0
136 135 199 0
136 -135 -199 0
-136 135 -199 0
-136 -135 199 0
137 135 247 0
137 -135 -247 0
-137 135 -247 0
-137 -135 247 0
138 135 369 0
138 -135 -369 0
-138 135 -369 0
-138 -135 369 0
139 135 422 0
139 -135 -422 0
-139 135 -422 0
-139 -135 422 0
141 140 405 0
141 -140 -405 0
-141 140 -405 0
-141 -140 405 0
142 140 420 0
142 -140 -420 0
-142 140 -420 0
-142 -140 420 0
144 143 288 0
144 -143 -288 0
-144 143 -288 0
-144 -143 288 0
145 143 411 0
145 -143 -411 0
-145 143 -411 0
-145 -143 411 0
147 146 313 0
147 -146 -313 0
-147 146 -313 0
-147 -146 313 0
148 146 355 0
148 -146 -355 0
-148 146 -355 0
-148 -146 355 0
150 149 313 0
150 -149 -313 0
-150 149 -313 0
-150 -149 313 0
151 149 383 0
151 -149 -383 0
-151 149 -383 0
-151 -149 383 0
152 149 424 0
152 -149 -424 0
-152 149 -424 0
-152 -149 424 0
154 153 184 0
154 -153 -184 0
-154 153 -184 0
-154 -153 184 0
155 153 197 0
155 -153 -197 0
-155 153 -197 0
-155 -153 197 0
156 153 256 0
156 -153 -256 0
-156 153 -256 0
-156 -153 256 0
157 153 321 0
157 -153 -321 0
-157 153 -321 0
-157 -153 321 0
159 158 231 0
159 -158 -231 0
-159 158 -231 0
-159 -158 231 0
160 158 290 0
160 -158 -290 0
-160 158 -290 0
-160 -158 290 0
161 158 389 0
161 -158 -389 0
-161 158 -389 0
-161 -158 389 0
162 158 411 0
162 -158 -411 0
-162 158 -411 0
-162 -158 411 0
164 163 337 0
164 -163 -337 0
-164 163 -337 0
-164 -163 337 0
165 163 379 0
165 -163 -379 0
-165 163 -379 0
-165 -163 379 0
166 163 402 0
166 -163 -402 0
-166 163 -402 0
-166 -163 402 0
168 167 208 0
168 -167 -208 0
-168 167 -208 0
-168 -167 208 0
169 167 361 0
169 -167 -361 0
-169 167 -361 0
-169 -167 361 0
171 170 337 0
171 -170 -337 0
-171 170 -337 0
-171 -170 337 0
172 170 356 0
172 -170 -356 0
-172 170 -356 0
-172 -170 356 0
173 170 405 0
173 -170 -405 0
-173 170 -405 0
-173 -170 405 0
175 174 238 0
175 -174 -238 0
-175 174 -238 0
-175 -174 238 0
177 176 373 0
177 -176 -373 0
-177 176 -373 0
-177 -176 373 0
178 176 392 0
178 -176 -392 0
-178 176 -392 0
-178 -176 392 0
180 179 304 0
180 -179 -304 0
-180 179 -304 0
-180 -179 304 0
181 179 316 0
181 -179 -316 0
-181 179 -316 0
-181 -179 316 0
182 179 372 0
182 -179 -372 0
-182 179 -372 0
-182 -179 372 0
183 179 400 0
183 -179 -400 0
-183 179 -400 0
-183 -179 400 0
186 185 316 0
186 -185 -316 0
-186 185 -316 0
-186 -185 316 0
187 185 405 0
187 -185 -405 0
-187 185 -405 0
-187 -185 405 0
189 188 193 0
189 -188 -193 0
-189 188 -193 0
-189 -188 193 0
190 188 208 0
190 -188 -208 0
-190 188 -208 0
-190 -188 208 0
191 188 258 0
191 -188 -258 0
-191 188 -258 0
-191 -188 258 0
192 188 416 0
192 -188 -416 0
-192 188 -416 0
-192 -188 416 0
194 193 247 0
194 -193 -247 0
-194 193 -247 0
-194 -193 247 0
195 193 348 0
195 -193 -348 0
-195 193 -348 0
-195 -193 348 0
196 193 367 0
196 -193 -367 0
-196 193 -367 0
-196 -193 367 0
198 197 321 0
198 -197 -321 0
-198 197 -321 0
-198 -197 321 0
200 199 266 0
200 -199 -266 0
-200 199 -266 0
-200 -199 266 0
201 199 390 0
201 -199 -390 0
-201 199 -390 0
-201 -199 390 0
202 199 419 0
202 -199 -419 0
-202 199 -419 0
-202 -199 419 0
204 203 234 0
204 -203 -234 0
-204 203 -234 0
-204 -203 234 0
205 203 335 0
205 -203 -335 0
-205 203 -335 0
-205 -203 335 0
206 203 381 0
206 -203 -381 0
-206 203 -381 0
-206 -203 381 0
209 208 405 0
209 -208 -405 0
-209 208 -405 0
-209 -208 405 0
211 210 290 0
211 -210 -290 0
-211 210 -290 0
-211 -210 290 0
212 210 409 0
212 -210 -409 0
-212 210 -409 0
-212 -210 409 0
215 214 417 0
215 -214 -417 0
-215 214 -417 0
-215 -214 417 0
217 216 224 0
217 -216 -224 0
-217 216 -224 0
-217 -216 224 0
218 216 372 0
218 -216 -372 0
-218 216 -372 0
-218 -216 372 0
220 219 268 0
220 -219 -268 0
-220 219 -268 0
-220 -219 268 0
221 219 349 0
221 -219 -349 0
-221 219 -349 0
-221 -219 349 0
222 219 385 0
222 -219 -385 0
-222 219 -385 0
-222 -219 385 0
223 219 393 0
223 -219 -393 0
-223 219 -393 0
-223 -219 393 0
225 224 402 0
225 -224 -402 0
-225 224 -402 0
-225 -224 402 0
226 224 415 0
226 -224 -415 0
-226 224 -415 0
-226 -224 415 0
228 227 273 0
228 -227 -273 0
-228 227 -273 0
-228 -227 273 0
229 227 358 0
229 -227 -358 0
-229 227 -358 0
-229 -227 358 0
230 227 365 0
230 -227 -365 0
-230 227 -365 0
-230 -227 365 0
232 231 247 0
232 -231 -247 0
-232 231 -247 0
-232 -231 247 0
233 231 289 0
233 -231 -289 0
-233 231 -289 0
-233 -231 289 0
237 236 396 0
237 -236 -396 0
-237 236 -396 0
-237 -236 396 0
239 238 259 0
239 -238 -259 0
-239 238 -259 0
-239 -238 259 0
240 238 400 0
240 -238 -400 0
-240 238 -400 0
-240 -238 400 0
242 241 283 0
242 -241 -283 0
-242 241 -283 0
-242 -241 283 0
244 243 268 0
244 -243 -268 0
-244 243 -268 0
-244 -243 268 0
245 243 294 0
245 -243 -294 0
-245 243 -294 0
-245 -243 294 0
246 243 313 0
246 -243 -313 0
-246 243 -313 0
-246 -243 313 0
249 248 292 0
249 -248 -292 0
-249 248 -292 0
-249 -248 292 0
250 248 337 0
250 -248 -337 0
-250 248 -337 0
-250 -248 337 0
251 248 356 0
251 -248 -356 0
-251 248 -356 0
-251 -248 356 0
253 252 297 0
253 -252 -297 0
-253 252 -297 0
-253 -252 297 0
255 254 350 0
255 -254 -350 0
-255 254 -350 0
-255 -254 350 0
257 256 304 0
257 -256 -304 0
-257 256 -304 0
-257 -256 304 0
260 259 311 0
260 -259 -311 0
-260 259 -311 0
-260 -259 311 0
261 259 403 0
261 -259 -403 0
-261 259 -403 0
-261 -259 403 0
263 262 303 0
263 -262 -303 0
-263 262 -303 0
-263 -262 303 0
264 262 365 0
264 -262 -365 0
-264 262 -365 0
-264 -262 365 0
265 262 397 0
265 -262 -397 0
-265 262 -397 0
-265 -262 397 0
267 266 409 0
267 -266 -409 0
-267 266 -409 0
-267 -266 409 0
269 268 333 0
269 -268 -333 0
-269 268 -333 0
-269 -268 333 0
270 268 387 0
270 -268 -387 0
-270 268 -387 0
-270 -268 387 0
272 271 389 0
272 -271 -389 0
-272 271 -389 0
-272 -271 389 0
274 273 358 0
274 -273 -358 0
-274 273 -358 0
-274 -273 358 0
275 273 390 0
275 -273 -390 0
-275 273 -390 0
-275 -273 390 0
277 276 360 0
277 -276 -360 0
-277 276 -360 0
-277 -276 360 0
280 279 331 0
280 -279 -331 0
-280 279 -331 0
-280 -279 331 0
281 279 341 0
281 -279 -341 0
-281 279 -341 0
-281 -279 341 0
282 279 392 0
282 -279 -392 0
-282 279 -392 0
-282 -279 392 0
284 283 328 0
284 -283 -328 0
-284 283 -328 0
-284 -283 328 0
285 283 372 0
285 -283 -372 0
-285 283 -372 0
-285 -283 372 0
286 283 423 0
286 -283 -423 0
-286 283 -423 0
-286 -283 423 0
287 283 424 0
287 -283 -424 0
-287 283 -424 0
-287 -283 424 0
291 290 360 0
291 -290 -360 0
-291 290 -360 0
-291 -290 360 0
293 292 375 0
293 -292 -375 0
-293 292 -375 0
-293 -292 375 0
295 294 344 0
295 -294 -344 0
-295 294 -344 0
-295 -294 344 0
296 294 384 0
296 -294 -384 0
-296 294 -384 0
-296 -294 384 0
298 297 325 0
298 -297 -325 0
-298 297 -325 0
-298 -297 325 0
299 297 361 0
299 -297 -361 0
-299 297 -361 0
-299 -297 361 0
300 297 384 0
300 -297 -384 0
-300 297 -384 0
-300 -297 384 0
302 301 306 0
302 -301 -306 0
-302 301 -306 0
-302 -301 306 0
307 306 328 0
307 -306 -328 0
-307 306 -328 0
-307 -306 328 0
308 306 367 0
308 -306 -367 0
-308 306 -367 0
-308 -306 367 0
309 306 377 0
309 -306 -377 0
-309 306 -377 0
-309 -306 377 0
310 306 387 0
310 -306 -387 0
-310 306 -387 0
-310 -306 387 0
314 313 422 0
314 -313 -422 0
-314 313 -422 0
-314 -313 422 0
317 316 414 0
317 -316 -414 0
-317 316 -414 0
-317 -316 414 0
319 318 349 0
319 -318 -349 0
-319 318 -349 0
-319 -318 349 0
320 318 375 0
320 -318 -375 0
-320 318 -375 0
-320 -318 375 0
322 321 333 0
322 -321 -333 0
-322 321 -333 0
-322 -321 333 0
323 321 375 0
323 -321 -375 0
-323 321 -375 0
-323 -321 375 0
324 321 397 0
324 -321 -397 0
-324 321 -397 0
-324 -321 397 0
326 325 375 0
326 -325 -375 0
-326 325 -375 0
-326 -325 375 0
327 325 392 0
327 -325 -392 0
-327 325 -392 0
-327 -325 392 0
329 328 350 0
329 -328 -350 0
-329 328 -350 0
-329 -328 350 0
330 328 390 0
330 -328 -390 0
-330 328 -390 0
-330 -328 390 0
332 331 400 0
332 -331 -400 0
-332 331 -400 0
-332 -331 400 0
334 333 355 0
334 -333 -355 0
-334 333 -355 0
-334 -333 355 0
336 335 344 0
336 -335 -344 0
-336 335 -344 0
-336 -335 344 0
338 337 408 0
338 -337 -408 0
-338 337 -408 0
-338 -337 408 0
340 339 393 0
340 -339 -393 0
-340 339 -393 0
-340 -339 393 0
342 341 375 0
342 -341 -375 0
-342 341 -375 0
-342 -341 375 0
343 341 419 0
343 -341 -419 0
-343 341 -419 0
-343 -341 419 0
345 344 367 0
345 -344 -367 0
-345 344 -367 0
-345 -344 367 0
347 346 410 0
347 -346 -410 0
-347 346 -410 0
-347 -346 410 0
351 350 365 0
351 -350 -365 0
-351 350 -365 0
-351 -350 365 0
352 350 367 0
352 -350 -367 0
-352 350 -367 0
-352 -350 367 0
353 350 396 0
353 -350 -396 0
-353 350 -396 0
-353 -350 396 0
354 350 423 0
354 -350 -423 0
-354 350 -423 0
-354 -350 423 0
357 356 424 0
357 -356 -424 0
-357 356 -424 0
-357 -356 424 0
359 358 408 0
359 -358 -408 0
-359 358 -408 0
-359 -358 408 0
362 361 377 0
362 -361 -377 0
-362 361 -377 0
-362 -361 377 0
363 361 385 0
363 -361 -385 0
-363 361 -385 0
-363 -361 385 0
366 365 416 0
366 -365 -416 0
-366 365 -416 0
-366 -365 416 0
368 367 390 0
368 -367 -390 0
-368 367 -390 0
-368 -367 390 0
370 369 381 0
370 -369 -381 0
-370 369 -381 0
-370 -369 381 0
371 369 400 0
371 -369 -400 0
-371 369 -400 0
-371 -369 400 0
374 373 399 0
374 -373 -399 0
-374 373 -399 0
-374 -373 399 0
376 375 410 0
376 -375 -410 0
-376 375 -410 0
-376 -375 410 0
378 377 391 0
378 -377 -391 0
-378 377 -391 0
-378 -377 391 0
380 379 409 0
380 -379 -409 0
-380 379 -409 0
-380 -379 409 0
382 381 413 0
382 -381 -413 0
-382 381 -413 0
-382 -381 413 0
386 385 409 0
386 -385 -409 0
-386 385 -409 0
-386 -385 409 0
388 387 420 0
388 -387 -420 0
-388 387 -420 0
-388 -387 420 0
398 397 407 0
398 -397 -407 0
-398 397 -407 0
-398 -397 407 0
401 400 408 0
401 -400 -408 0
-401 400 -408 0
-401 -400 408 0
404 403 409 0
404 -403 -409 0
-404 403 -409 0
-404 -403 409 0
406 405 416 0
406 -405 -416 0
-406 405 -416 0
-406 -405 416 0
412 411 422 0
412 -411 -422 0
-412 411 -422 0
-412 -411 422 0
